
Gurobi 11.0.0 (win64) logging started Sat Jun 15 09:56:57 2024

Set parameter LogFile to value "./GurobiLog/stage_1_iter_13.log"
Gurobi Optimizer version 11.0.0 build v11.0.0rc2 (win64 - Windows 10.0 (18363.2))

CPU model: Intel(R) Core(TM) i7-8700 CPU @ 3.20GHz, instruction set [SSE2|AVX|AVX2]
Thread count: 6 physical cores, 12 logical processors, using up to 1 threads

Optimize a model with 1494 rows, 20463 columns and 83098 nonzeros
Coefficient statistics:
  Matrix range     [3e-03, 7e+03]
  Objective range  [1e-01, 2e+05]
  Bounds range     [2e+00, 1e+06]
  RHS range        [1e+00, 4e+04]
LP warm-start: use basis
Iteration    Objective       Primal Inf.    Dual Inf.      Time
       0    5.2642997e+04   3.661895e+03   0.000000e+00      0s
     174    5.6686685e+04   0.000000e+00   0.000000e+00      0s

Solved in 174 iterations and 0.02 seconds (0.02 work units)
Optimal objective  5.668668465e+04

Gurobi 11.0.0 (win64) logging started Sat Jun 15 10:55:07 2024

Set parameter LogFile to value "./GurobiLog/stage_1_iter_13.log"
Gurobi Optimizer version 11.0.0 build v11.0.0rc2 (win64 - Windows 10.0 (18363.2))

CPU model: Intel(R) Core(TM) i7-8700 CPU @ 3.20GHz, instruction set [SSE2|AVX|AVX2]
Thread count: 6 physical cores, 12 logical processors, using up to 1 threads

Optimize a model with 1494 rows, 20463 columns and 81810 nonzeros
Coefficient statistics:
  Matrix range     [7e-03, 7e+03]
  Objective range  [1e-01, 2e+05]
  Bounds range     [6e-02, 5e+05]
  RHS range        [1e+00, 1e+05]
LP warm-start: use basis
Iteration    Objective       Primal Inf.    Dual Inf.      Time
       0    4.7028647e+04   4.964495e+04   0.000000e+00      0s
     125    5.3255186e+04   0.000000e+00   0.000000e+00      0s

Solved in 125 iterations and 0.01 seconds (0.01 work units)
Optimal objective  5.325518645e+04
